n = 5;
m = 4;

G =
  [
    [ 0.00 0.20 0.00 0.00 0.00 ]
	[ 0.20 0.00 0.20 0.20 0.00 ]
	[ 0.00 0.20 0.00 0.00 0.00 ]
	[ 0.00 0.20 0.00 0.00 0.20 ]
	[ 0.00 0.00 0.00 0.20 0.00 ]
  ];

H =
  [
  [ 0.00 0.5 0.00 0.00 ]
  [ 0.5 0.00 0.5 0.00 ]
  [ 0.00 0.5 0.00 0.5 ]
  [ 0.00 0.00 0.5 0.00 ]
  ];
